benchmark/results/graph__10-1000-0.10-03_11/graph__10-1000-0.10-03_11_Quinton_Benders_sub.lp
\ This file has been generated by DOcplex
\ ENCODING=ISO-8859-1
\Problem name: Quinton Benders_dual_sub

Minimize
 obj: 0.000936329588 pi_nr_a0 + 0.002053388090 pi_nr_a1
      + 0.000960614793 pi_nr_a2 + 0.002232142857 pi_nr_a3
      + 0.000940733772 pi_nr_a4 + 0.001356852103 pi_nr_a5
      + 0.001047120419 pi_nr_a6 + 0.001351351351 pi_nr_a7
      + 0.001267427123 pi_nr_a8 + 0.001739130435 pi_nr_a9 + pi_p_a2_a4
      + 2 pi_p_a5_a0 + pi_p_a6_a7 + pi_p_a8_a6 + pi_p_a6_a9 + pi_p_a7_a3
      + 2516 pi_d_a0_a1_proc_2 + 2516 pi_d_a0_a1_proc_1 + 2517 pi_d_a1_a0_proc_2
      + 2517 pi_d_a1_a0_proc_1 + pi_d_a1_a0_proc_0 + 2516 pi_d_a0_a2_proc_2
      + 2516 pi_d_a0_a2_proc_1 + 2517 pi_d_a2_a0_proc_2 + 2517 pi_d_a2_a0_proc_1
      + pi_d_a2_a0_proc_0 + 2517 pi_d_a0_a3_proc_2 + 3775 pi_d_a0_a3_proc_1
      + 1258 pi_d_a3_a0_proc_1 + 1855 pi_d_a0_a4_proc_2 + 3113 pi_d_a0_a4_proc_1
      + 1855 pi_d_a0_a4_proc_0 + 662 pi_d_a4_a0_proc_2 + 1920 pi_d_a4_a0_proc_1
      + 662 pi_d_a4_a0_proc_0 + 3248 pi_d_a0_a5_proc_2 + 1990 pi_d_a0_a5_proc_1
      + 1990 pi_d_a0_a5_proc_0 + 1785 pi_d_a5_a0_proc_2 + 527 pi_d_a5_a0_proc_1
      + 527 pi_d_a5_a0_proc_0 + 3773 pi_d_a0_a6_proc_2 + 2515 pi_d_a0_a6_proc_1
      + 2515 pi_d_a0_a6_proc_0 + 1260 pi_d_a6_a0_proc_2 + 2 pi_d_a6_a0_proc_1
      + 2 pi_d_a6_a0_proc_0 + 2516 pi_d_a0_a7_proc_2 + 3774 pi_d_a0_a7_proc_1
      + 2516 pi_d_a0_a7_proc_0 + pi_d_a7_a0_proc_2 + 1259 pi_d_a7_a0_proc_1
      + pi_d_a7_a0_proc_0 + 198 pi_d_a0_a8_proc_1 + 198 pi_d_a0_a8_proc_0
      + 2319 pi_d_a8_a0_proc_1 + 2319 pi_d_a8_a0_proc_0 + pi_d_a0_a9_proc_2
      + 1259 pi_d_a0_a9_proc_1 + pi_d_a0_a9_proc_0 + 2516 pi_d_a9_a0_proc_2
      + 3774 pi_d_a9_a0_proc_1 + 2516 pi_d_a9_a0_proc_0 + 2516 pi_d_a1_a2_proc_2
      + 2516 pi_d_a1_a2_proc_1 + 2517 pi_d_a2_a1_proc_2 + 2517 pi_d_a2_a1_proc_1
      + pi_d_a2_a1_proc_0 + 2517 pi_d_a1_a3_proc_2 + 3775 pi_d_a1_a3_proc_1
      + 1258 pi_d_a3_a1_proc_1 + 2517 pi_d_a1_a4_proc_2 + 3775 pi_d_a1_a4_proc_1
      + 2517 pi_d_a1_a4_proc_0 + 1258 pi_d_a4_a1_proc_1 + 3774 pi_d_a1_a5_proc_2
      + 2516 pi_d_a1_a5_proc_1 + 2516 pi_d_a1_a5_proc_0 + 1259 pi_d_a5_a1_proc_2
      + pi_d_a5_a1_proc_1 + pi_d_a5_a1_proc_0 + 3774 pi_d_a1_a6_proc_2
      + 2516 pi_d_a1_a6_proc_1 + 2516 pi_d_a1_a6_proc_0 + 1259 pi_d_a6_a1_proc_2
      + pi_d_a6_a1_proc_1 + pi_d_a6_a1_proc_0 + 2516 pi_d_a1_a7_proc_2
      + 3774 pi_d_a1_a7_proc_1 + 2516 pi_d_a1_a7_proc_0 + pi_d_a7_a1_proc_2
      + 1259 pi_d_a7_a1_proc_1 + pi_d_a7_a1_proc_0 + 2515 pi_d_a1_a8_proc_1
      + 2515 pi_d_a1_a8_proc_0 + 2 pi_d_a8_a1_proc_1 + 2 pi_d_a8_a1_proc_0
      + 2516 pi_d_a1_a9_proc_2 + 3774 pi_d_a1_a9_proc_1 + 2516 pi_d_a1_a9_proc_0
      + pi_d_a9_a1_proc_2 + 1259 pi_d_a9_a1_proc_1 + pi_d_a9_a1_proc_0
      + pi_d_a2_a3_proc_2 + 1259 pi_d_a2_a3_proc_1 + 2516 pi_d_a3_a2_proc_2
      + 3774 pi_d_a3_a2_proc_1 + 2517 pi_d_a2_a4_proc_2 + 3775 pi_d_a2_a4_proc_1
      + 2517 pi_d_a2_a4_proc_0 + 1258 pi_d_a4_a2_proc_1 + 2319 pi_d_a2_a5_proc_2
      + 1061 pi_d_a2_a5_proc_1 + 1061 pi_d_a2_a5_proc_0 + 2714 pi_d_a5_a2_proc_2
      + 1456 pi_d_a5_a2_proc_1 + 1456 pi_d_a5_a2_proc_0 + 2843 pi_d_a2_a6_proc_2
      + 1585 pi_d_a2_a6_proc_1 + 1585 pi_d_a2_a6_proc_0 + 2190 pi_d_a6_a2_proc_2
      + 932 pi_d_a6_a2_proc_1 + 932 pi_d_a6_a2_proc_0 + 2516 pi_d_a2_a7_proc_2
      + 3774 pi_d_a2_a7_proc_1 + 2516 pi_d_a2_a7_proc_0 + pi_d_a7_a2_proc_2
      + 1259 pi_d_a7_a2_proc_1 + pi_d_a7_a2_proc_0 + 1120 pi_d_a2_a8_proc_1
      + 1120 pi_d_a2_a8_proc_0 + 1397 pi_d_a8_a2_proc_1 + 1397 pi_d_a8_a2_proc_0
      + 2517 pi_d_a2_a9_proc_2 + 3775 pi_d_a2_a9_proc_1 + 2517 pi_d_a2_a9_proc_0
      + 1258 pi_d_a9_a2_proc_1 + 2516 pi_d_a3_a4_proc_1 + pi_d_a4_a3_proc_2
      + 2517 pi_d_a4_a3_proc_1 + 2517 pi_d_a5_a3_proc_2 + 2517 pi_d_a5_a3_proc_1
      + 2515 pi_d_a3_a6_proc_2 + 2515 pi_d_a3_a6_proc_1 + 2 pi_d_a6_a3_proc_2
      + 2 pi_d_a6_a3_proc_1 + 2516 pi_d_a3_a7_proc_1 + pi_d_a7_a3_proc_2
      + 2517 pi_d_a7_a3_proc_1 + 1803 pi_d_a3_a8_proc_1 + 714 pi_d_a8_a3_proc_1
      + 2516 pi_d_a3_a9_proc_1 + pi_d_a9_a3_proc_2 + 2517 pi_d_a9_a3_proc_1
      + 1711 pi_d_a4_a5_proc_2 + 1711 pi_d_a4_a5_proc_1 + 2969 pi_d_a4_a5_proc_0
      + 806 pi_d_a5_a4_proc_2 + 806 pi_d_a5_a4_proc_1 + 2064 pi_d_a5_a4_proc_0
      + 2515 pi_d_a4_a6_proc_2 + 2515 pi_d_a4_a6_proc_1 + 3773 pi_d_a4_a6_proc_0
      + 2 pi_d_a6_a4_proc_2 + 2 pi_d_a6_a4_proc_1 + 1260 pi_d_a6_a4_proc_0
      + 2516 pi_d_a4_a7_proc_1 + 2516 pi_d_a4_a7_proc_0 + pi_d_a7_a4_proc_2
      + 2517 pi_d_a7_a4_proc_1 + 2517 pi_d_a7_a4_proc_0 - pi_d_a4_a8_proc_1
      + 1257 pi_d_a4_a8_proc_0 + 2518 pi_d_a8_a4_proc_1 + 3776 pi_d_a8_a4_proc_0
      + 2516 pi_d_a4_a9_proc_1 + 2516 pi_d_a4_a9_proc_0 + pi_d_a9_a4_proc_2
      + 2517 pi_d_a9_a4_proc_1 + 2517 pi_d_a9_a4_proc_0 + 2516 pi_d_a5_a6_proc_2
      + 2516 pi_d_a5_a6_proc_0 + 2517 pi_d_a6_a5_proc_2 + pi_d_a6_a5_proc_1
      + 2517 pi_d_a6_a5_proc_0 + 2517 pi_d_a5_a7_proc_2 + 2517 pi_d_a5_a7_proc_1
      + 3775 pi_d_a5_a7_proc_0 + 1258 pi_d_a7_a5_proc_0 + 2516 pi_d_a5_a8_proc_0
      + pi_d_a8_a5_proc_1 + 2517 pi_d_a8_a5_proc_0 + 2517 pi_d_a5_a9_proc_2
      + 2517 pi_d_a5_a9_proc_1 + 3775 pi_d_a5_a9_proc_0 + 1258 pi_d_a9_a5_proc_0
      + 2517 pi_d_a6_a7_proc_2 + 2517 pi_d_a6_a7_proc_1 + 3775 pi_d_a6_a7_proc_0
      + 1258 pi_d_a7_a6_proc_0 + 2516 pi_d_a6_a8_proc_0 + pi_d_a8_a6_proc_1
      + 2517 pi_d_a8_a6_proc_0 + 2517 pi_d_a6_a9_proc_2 + 2517 pi_d_a6_a9_proc_1
      + 3775 pi_d_a6_a9_proc_0 + 1258 pi_d_a9_a6_proc_0 + 2516 pi_d_a7_a8_proc_1
      + 3774 pi_d_a7_a8_proc_0 + pi_d_a8_a7_proc_1 + 1259 pi_d_a8_a7_proc_0
      + pi_d_a7_a9_proc_2 + 2517 pi_d_a7_a9_proc_1 + 2517 pi_d_a7_a9_proc_0
      + 2516 pi_d_a9_a7_proc_1 + 2516 pi_d_a9_a7_proc_0 + 2517 pi_d_a8_a9_proc_1
      + 3775 pi_d_a8_a9_proc_0 + 1258 pi_d_a9_a8_proc_0 + pi_y2_a0_proc_0
      + pi_y2_a1_proc_0 + pi_y2_a2_proc_0 + pi_y2_a3_proc_2 + pi_y2_a4_proc_2
      + pi_y2_a5_proc_1 + pi_y2_a6_proc_1 + pi_y2_a7_proc_2 + pi_y2_a8_proc_1
      + pi_y2_a9_proc_2
Subject To
 c1: pi_nr_a0 + pi_nr_a1 + pi_nr_a2 + pi_nr_a3 + pi_nr_a4 + pi_nr_a5 + pi_nr_a6
     + pi_nr_a7 + pi_nr_a8 + pi_nr_a9 - pi_y1_a0 - pi_y1_a1 - pi_y1_a2
     - pi_y1_a3 - pi_y1_a4 - pi_y1_a5 - pi_y1_a6 - pi_y1_a7 - pi_y1_a8
     - pi_y1_a9 >= 1
 c2: pi_p_a0_a1 - pi_p_a3_a0 - pi_p_a5_a0 + pi_d_a0_a1_proc_2
     + pi_d_a0_a1_proc_1 + pi_d_a0_a1_proc_0 - pi_d_a1_a0_proc_2
     - pi_d_a1_a0_proc_1 - pi_d_a1_a0_proc_0 + pi_d_a0_a2_proc_2
     + pi_d_a0_a2_proc_1 + pi_d_a0_a2_proc_0 - pi_d_a2_a0_proc_2
     - pi_d_a2_a0_proc_1 - pi_d_a2_a0_proc_0 + pi_d_a0_a3_proc_2
     + pi_d_a0_a3_proc_1 - pi_d_a3_a0_proc_2 - pi_d_a3_a0_proc_1
     + pi_d_a0_a4_proc_2 + pi_d_a0_a4_proc_1 + pi_d_a0_a4_proc_0
     - pi_d_a4_a0_proc_2 - pi_d_a4_a0_proc_1 - pi_d_a4_a0_proc_0
     + pi_d_a0_a5_proc_2 + pi_d_a0_a5_proc_1 + pi_d_a0_a5_proc_0
     - pi_d_a5_a0_proc_2 - pi_d_a5_a0_proc_1 - pi_d_a5_a0_proc_0
     + pi_d_a0_a6_proc_2 + pi_d_a0_a6_proc_1 + pi_d_a0_a6_proc_0
     - pi_d_a6_a0_proc_2 - pi_d_a6_a0_proc_1 - pi_d_a6_a0_proc_0
     + pi_d_a0_a7_proc_2 + pi_d_a0_a7_proc_1 + pi_d_a0_a7_proc_0
     - pi_d_a7_a0_proc_2 - pi_d_a7_a0_proc_1 - pi_d_a7_a0_proc_0
     + pi_d_a0_a8_proc_1 + pi_d_a0_a8_proc_0 - pi_d_a8_a0_proc_1
     - pi_d_a8_a0_proc_0 + pi_d_a0_a9_proc_2 + pi_d_a0_a9_proc_1
     + pi_d_a0_a9_proc_0 - pi_d_a9_a0_proc_2 - pi_d_a9_a0_proc_1
     - pi_d_a9_a0_proc_0 >= 0
 c3: 1068 pi_p_a0_a1 + 1068 pi_d_a0_a1_proc_0 + 1068 pi_d_a0_a2_proc_0
     + 1068 pi_d_a0_a4_proc_0 + 1068 pi_d_a0_a5_proc_0 + 1068 pi_d_a0_a6_proc_0
     + 1068 pi_d_a0_a7_proc_0 + 1068 pi_d_a0_a8_proc_0 + 1068 pi_d_a0_a9_proc_0
     + pi_y1_a0 + pi_y2_a0_proc_0 >= 0
 c4: 855 pi_p_a0_a1 + 855 pi_d_a0_a1_proc_1 + 855 pi_d_a0_a2_proc_1
     + 855 pi_d_a0_a3_proc_1 + 855 pi_d_a0_a4_proc_1 + 855 pi_d_a0_a5_proc_1
     + 855 pi_d_a0_a6_proc_1 + 855 pi_d_a0_a7_proc_1 + 855 pi_d_a0_a8_proc_1
     + 855 pi_d_a0_a9_proc_1 + pi_y1_a0 + pi_y2_a0_proc_1 >= 0
 c5: 1040 pi_p_a0_a1 + 1040 pi_d_a0_a1_proc_2 + 1040 pi_d_a0_a2_proc_2
     + 1040 pi_d_a0_a3_proc_2 + 1040 pi_d_a0_a4_proc_2 + 1040 pi_d_a0_a5_proc_2
     + 1040 pi_d_a0_a6_proc_2 + 1040 pi_d_a0_a7_proc_2 + 1040 pi_d_a0_a9_proc_2
     + pi_y1_a0 + pi_y2_a0_proc_2 >= 0
 c6: - pi_p_a0_a1 + pi_p_a1_a2 + pi_p_a1_a7 - pi_d_a0_a1_proc_2
     - pi_d_a0_a1_proc_1 - pi_d_a0_a1_proc_0 + pi_d_a1_a0_proc_2
     + pi_d_a1_a0_proc_1 + pi_d_a1_a0_proc_0 + pi_d_a1_a2_proc_2
     + pi_d_a1_a2_proc_1 + pi_d_a1_a2_proc_0 - pi_d_a2_a1_proc_2
     - pi_d_a2_a1_proc_1 - pi_d_a2_a1_proc_0 + pi_d_a1_a3_proc_2
     + pi_d_a1_a3_proc_1 - pi_d_a3_a1_proc_2 - pi_d_a3_a1_proc_1
     + pi_d_a1_a4_proc_2 + pi_d_a1_a4_proc_1 + pi_d_a1_a4_proc_0
     - pi_d_a4_a1_proc_2 - pi_d_a4_a1_proc_1 - pi_d_a4_a1_proc_0
     + pi_d_a1_a5_proc_2 + pi_d_a1_a5_proc_1 + pi_d_a1_a5_proc_0
     - pi_d_a5_a1_proc_2 - pi_d_a5_a1_proc_1 - pi_d_a5_a1_proc_0
     + pi_d_a1_a6_proc_2 + pi_d_a1_a6_proc_1 + pi_d_a1_a6_proc_0
     - pi_d_a6_a1_proc_2 - pi_d_a6_a1_proc_1 - pi_d_a6_a1_proc_0
     + pi_d_a1_a7_proc_2 + pi_d_a1_a7_proc_1 + pi_d_a1_a7_proc_0
     - pi_d_a7_a1_proc_2 - pi_d_a7_a1_proc_1 - pi_d_a7_a1_proc_0
     + pi_d_a1_a8_proc_1 + pi_d_a1_a8_proc_0 - pi_d_a8_a1_proc_1
     - pi_d_a8_a1_proc_0 + pi_d_a1_a9_proc_2 + pi_d_a1_a9_proc_1
     + pi_d_a1_a9_proc_0 - pi_d_a9_a1_proc_2 - pi_d_a9_a1_proc_1
     - pi_d_a9_a1_proc_0 >= 0
 c7: 487 pi_p_a1_a2 + 487 pi_p_a1_a7 + 487 pi_d_a1_a0_proc_0
     + 487 pi_d_a1_a2_proc_0 + 487 pi_d_a1_a4_proc_0 + 487 pi_d_a1_a5_proc_0
     + 487 pi_d_a1_a6_proc_0 + 487 pi_d_a1_a7_proc_0 + 487 pi_d_a1_a8_proc_0
     + 487 pi_d_a1_a9_proc_0 + pi_y1_a1 + pi_y2_a1_proc_0 >= 0
 c8: 1254 pi_p_a1_a2 + 1254 pi_p_a1_a7 + 1254 pi_d_a1_a0_proc_1
     + 1254 pi_d_a1_a2_proc_1 + 1254 pi_d_a1_a3_proc_1 + 1254 pi_d_a1_a4_proc_1
     + 1254 pi_d_a1_a5_proc_1 + 1254 pi_d_a1_a6_proc_1 + 1254 pi_d_a1_a7_proc_1
     + 1254 pi_d_a1_a8_proc_1 + 1254 pi_d_a1_a9_proc_1 + pi_y1_a1
     + pi_y2_a1_proc_1 >= 0
 c9: 673 pi_p_a1_a2 + 673 pi_p_a1_a7 + 673 pi_d_a1_a0_proc_2
     + 673 pi_d_a1_a2_proc_2 + 673 pi_d_a1_a3_proc_2 + 673 pi_d_a1_a4_proc_2
     + 673 pi_d_a1_a5_proc_2 + 673 pi_d_a1_a6_proc_2 + 673 pi_d_a1_a7_proc_2
     + 673 pi_d_a1_a9_proc_2 + pi_y1_a1 + pi_y2_a1_proc_2 >= 0
 c10: - pi_p_a1_a2 + pi_p_a2_a4 - pi_p_a4_a2 - pi_d_a0_a2_proc_2
      - pi_d_a0_a2_proc_1 - pi_d_a0_a2_proc_0 + pi_d_a2_a0_proc_2
      + pi_d_a2_a0_proc_1 + pi_d_a2_a0_proc_0 - pi_d_a1_a2_proc_2
      - pi_d_a1_a2_proc_1 - pi_d_a1_a2_proc_0 + pi_d_a2_a1_proc_2
      + pi_d_a2_a1_proc_1 + pi_d_a2_a1_proc_0 + pi_d_a2_a3_proc_2
      + pi_d_a2_a3_proc_1 - pi_d_a3_a2_proc_2 - pi_d_a3_a2_proc_1
      + pi_d_a2_a4_proc_2 + pi_d_a2_a4_proc_1 + pi_d_a2_a4_proc_0
      - pi_d_a4_a2_proc_2 - pi_d_a4_a2_proc_1 - pi_d_a4_a2_proc_0
      + pi_d_a2_a5_proc_2 + pi_d_a2_a5_proc_1 + pi_d_a2_a5_proc_0
      - pi_d_a5_a2_proc_2 - pi_d_a5_a2_proc_1 - pi_d_a5_a2_proc_0
      + pi_d_a2_a6_proc_2 + pi_d_a2_a6_proc_1 + pi_d_a2_a6_proc_0
      - pi_d_a6_a2_proc_2 - pi_d_a6_a2_proc_1 - pi_d_a6_a2_proc_0
      + pi_d_a2_a7_proc_2 + pi_d_a2_a7_proc_1 + pi_d_a2_a7_proc_0
      - pi_d_a7_a2_proc_2 - pi_d_a7_a2_proc_1 - pi_d_a7_a2_proc_0
      + pi_d_a2_a8_proc_1 + pi_d_a2_a8_proc_0 - pi_d_a8_a2_proc_1
      - pi_d_a8_a2_proc_0 + pi_d_a2_a9_proc_2 + pi_d_a2_a9_proc_1
      + pi_d_a2_a9_proc_0 - pi_d_a9_a2_proc_2 - pi_d_a9_a2_proc_1
      - pi_d_a9_a2_proc_0 >= 0
 c11: 1041 pi_p_a2_a4 + 1041 pi_d_a2_a0_proc_0 + 1041 pi_d_a2_a1_proc_0
      + 1041 pi_d_a2_a4_proc_0 + 1041 pi_d_a2_a5_proc_0 + 1041 pi_d_a2_a6_proc_0
      + 1041 pi_d_a2_a7_proc_0 + 1041 pi_d_a2_a8_proc_0 + 1041 pi_d_a2_a9_proc_0
      + pi_y1_a2 + pi_y2_a2_proc_0 >= 0
 c12: 1258 pi_p_a2_a4 + 1258 pi_d_a2_a0_proc_1 + 1258 pi_d_a2_a1_proc_1
      + 1258 pi_d_a2_a3_proc_1 + 1258 pi_d_a2_a4_proc_1 + 1258 pi_d_a2_a5_proc_1
      + 1258 pi_d_a2_a6_proc_1 + 1258 pi_d_a2_a7_proc_1 + 1258 pi_d_a2_a8_proc_1
      + 1258 pi_d_a2_a9_proc_1 + pi_y1_a2 + pi_y2_a2_proc_1 >= 0
 c13: 1086 pi_p_a2_a4 + 1086 pi_d_a2_a0_proc_2 + 1086 pi_d_a2_a1_proc_2
      + 1086 pi_d_a2_a3_proc_2 + 1086 pi_d_a2_a4_proc_2 + 1086 pi_d_a2_a5_proc_2
      + 1086 pi_d_a2_a6_proc_2 + 1086 pi_d_a2_a7_proc_2 + 1086 pi_d_a2_a9_proc_2
      + pi_y1_a2 + pi_y2_a2_proc_2 >= 0
 c14: pi_p_a3_a0 - pi_p_a7_a3 - pi_d_a0_a3_proc_2 - pi_d_a0_a3_proc_1
      + pi_d_a3_a0_proc_2 + pi_d_a3_a0_proc_1 - pi_d_a1_a3_proc_2
      - pi_d_a1_a3_proc_1 + pi_d_a3_a1_proc_2 + pi_d_a3_a1_proc_1
      - pi_d_a2_a3_proc_2 - pi_d_a2_a3_proc_1 + pi_d_a3_a2_proc_2
      + pi_d_a3_a2_proc_1 + pi_d_a3_a4_proc_2 + pi_d_a3_a4_proc_1
      - pi_d_a4_a3_proc_2 - pi_d_a4_a3_proc_1 + pi_d_a3_a5_proc_2
      + pi_d_a3_a5_proc_1 - pi_d_a5_a3_proc_2 - pi_d_a5_a3_proc_1
      + pi_d_a3_a6_proc_2 + pi_d_a3_a6_proc_1 - pi_d_a6_a3_proc_2
      - pi_d_a6_a3_proc_1 + pi_d_a3_a7_proc_2 + pi_d_a3_a7_proc_1
      - pi_d_a7_a3_proc_2 - pi_d_a7_a3_proc_1 + pi_d_a3_a8_proc_1
      - pi_d_a8_a3_proc_1 + pi_d_a3_a9_proc_2 + pi_d_a3_a9_proc_1
      - pi_d_a9_a3_proc_2 - pi_d_a9_a3_proc_1 >= 0
 c15: 1000 pi_p_a3_a0 + 1000 pi_d_a3_a0_proc_1 + 1000 pi_d_a3_a1_proc_1
      + 1000 pi_d_a3_a2_proc_1 + 1000 pi_d_a3_a4_proc_1 + 1000 pi_d_a3_a5_proc_1
      + 1000 pi_d_a3_a6_proc_1 + 1000 pi_d_a3_a7_proc_1 + 1000 pi_d_a3_a8_proc_1
      + 1000 pi_d_a3_a9_proc_1 + pi_y1_a3 + pi_y2_a3_proc_1 >= 0
 c16: 448 pi_p_a3_a0 + 448 pi_d_a3_a0_proc_2 + 448 pi_d_a3_a1_proc_2
      + 448 pi_d_a3_a2_proc_2 + 448 pi_d_a3_a4_proc_2 + 448 pi_d_a3_a5_proc_2
      + 448 pi_d_a3_a6_proc_2 + 448 pi_d_a3_a7_proc_2 + 448 pi_d_a3_a9_proc_2
      + pi_y1_a3 + pi_y2_a3_proc_2 >= 0
 c17: - pi_p_a2_a4 + pi_p_a4_a9 + pi_p_a4_a2 - pi_d_a0_a4_proc_2
      - pi_d_a0_a4_proc_1 - pi_d_a0_a4_proc_0 + pi_d_a4_a0_proc_2
      + pi_d_a4_a0_proc_1 + pi_d_a4_a0_proc_0 - pi_d_a1_a4_proc_2
      - pi_d_a1_a4_proc_1 - pi_d_a1_a4_proc_0 + pi_d_a4_a1_proc_2
      + pi_d_a4_a1_proc_1 + pi_d_a4_a1_proc_0 - pi_d_a2_a4_proc_2
      - pi_d_a2_a4_proc_1 - pi_d_a2_a4_proc_0 + pi_d_a4_a2_proc_2
      + pi_d_a4_a2_proc_1 + pi_d_a4_a2_proc_0 - pi_d_a3_a4_proc_2
      - pi_d_a3_a4_proc_1 + pi_d_a4_a3_proc_2 + pi_d_a4_a3_proc_1
      + pi_d_a4_a5_proc_2 + pi_d_a4_a5_proc_1 + pi_d_a4_a5_proc_0
      - pi_d_a5_a4_proc_2 - pi_d_a5_a4_proc_1 - pi_d_a5_a4_proc_0
      + pi_d_a4_a6_proc_2 + pi_d_a4_a6_proc_1 + pi_d_a4_a6_proc_0
      - pi_d_a6_a4_proc_2 - pi_d_a6_a4_proc_1 - pi_d_a6_a4_proc_0
      + pi_d_a4_a7_proc_2 + pi_d_a4_a7_proc_1 + pi_d_a4_a7_proc_0
      - pi_d_a7_a4_proc_2 - pi_d_a7_a4_proc_1 - pi_d_a7_a4_proc_0
      + pi_d_a4_a8_proc_1 + pi_d_a4_a8_proc_0 - pi_d_a8_a4_proc_1
      - pi_d_a8_a4_proc_0 + pi_d_a4_a9_proc_2 + pi_d_a4_a9_proc_1
      + pi_d_a4_a9_proc_0 - pi_d_a9_a4_proc_2 - pi_d_a9_a4_proc_1
      - pi_d_a9_a4_proc_0 >= 0
 c18: 873 pi_p_a4_a9 + 873 pi_p_a4_a2 + 873 pi_d_a4_a0_proc_0
      + 873 pi_d_a4_a1_proc_0 + 873 pi_d_a4_a2_proc_0 + 873 pi_d_a4_a5_proc_0
      + 873 pi_d_a4_a6_proc_0 + 873 pi_d_a4_a7_proc_0 + 873 pi_d_a4_a8_proc_0
      + 873 pi_d_a4_a9_proc_0 + pi_y1_a4 + pi_y2_a4_proc_0 >= 0
 c19: 1041 pi_p_a4_a9 + 1041 pi_p_a4_a2 + 1041 pi_d_a4_a0_proc_1
      + 1041 pi_d_a4_a1_proc_1 + 1041 pi_d_a4_a2_proc_1 + 1041 pi_d_a4_a3_proc_1
      + 1041 pi_d_a4_a5_proc_1 + 1041 pi_d_a4_a6_proc_1 + 1041 pi_d_a4_a7_proc_1
      + 1041 pi_d_a4_a8_proc_1 + 1041 pi_d_a4_a9_proc_1 + pi_y1_a4
      + pi_y2_a4_proc_1 >= 0
 c20: 1063 pi_p_a4_a9 + 1063 pi_p_a4_a2 + 1063 pi_d_a4_a0_proc_2
      + 1063 pi_d_a4_a1_proc_2 + 1063 pi_d_a4_a2_proc_2 + 1063 pi_d_a4_a3_proc_2
      + 1063 pi_d_a4_a5_proc_2 + 1063 pi_d_a4_a6_proc_2 + 1063 pi_d_a4_a7_proc_2
      + 1063 pi_d_a4_a9_proc_2 + pi_y1_a4 + pi_y2_a4_proc_2 >= 0
 c21: pi_p_a5_a0 + pi_p_a5_a6 - pi_p_a7_a5 - pi_p_a9_a5 - pi_d_a0_a5_proc_2
      - pi_d_a0_a5_proc_1 - pi_d_a0_a5_proc_0 + pi_d_a5_a0_proc_2
      + pi_d_a5_a0_proc_1 + pi_d_a5_a0_proc_0 - pi_d_a1_a5_proc_2
      - pi_d_a1_a5_proc_1 - pi_d_a1_a5_proc_0 + pi_d_a5_a1_proc_2
      + pi_d_a5_a1_proc_1 + pi_d_a5_a1_proc_0 - pi_d_a2_a5_proc_2
      - pi_d_a2_a5_proc_1 - pi_d_a2_a5_proc_0 + pi_d_a5_a2_proc_2
      + pi_d_a5_a2_proc_1 + pi_d_a5_a2_proc_0 - pi_d_a3_a5_proc_2
      - pi_d_a3_a5_proc_1 + pi_d_a5_a3_proc_2 + pi_d_a5_a3_proc_1
      - pi_d_a4_a5_proc_2 - pi_d_a4_a5_proc_1 - pi_d_a4_a5_proc_0
      + pi_d_a5_a4_proc_2 + pi_d_a5_a4_proc_1 + pi_d_a5_a4_proc_0
      + pi_d_a5_a6_proc_2 + pi_d_a5_a6_proc_1 + pi_d_a5_a6_proc_0
      - pi_d_a6_a5_proc_2 - pi_d_a6_a5_proc_1 - pi_d_a6_a5_proc_0
      + pi_d_a5_a7_proc_2 + pi_d_a5_a7_proc_1 + pi_d_a5_a7_proc_0
      - pi_d_a7_a5_proc_2 - pi_d_a7_a5_proc_1 - pi_d_a7_a5_proc_0
      + pi_d_a5_a8_proc_1 + pi_d_a5_a8_proc_0 - pi_d_a8_a5_proc_1
      - pi_d_a8_a5_proc_0 + pi_d_a5_a9_proc_2 + pi_d_a5_a9_proc_1
      + pi_d_a5_a9_proc_0 - pi_d_a9_a5_proc_2 - pi_d_a9_a5_proc_1
      - pi_d_a9_a5_proc_0 >= 0
 c22: 898 pi_p_a5_a0 + 898 pi_p_a5_a6 + 898 pi_d_a5_a0_proc_0
      + 898 pi_d_a5_a1_proc_0 + 898 pi_d_a5_a2_proc_0 + 898 pi_d_a5_a4_proc_0
      + 898 pi_d_a5_a6_proc_0 + 898 pi_d_a5_a7_proc_0 + 898 pi_d_a5_a8_proc_0
      + 898 pi_d_a5_a9_proc_0 + pi_y1_a5 + pi_y2_a5_proc_0 >= 0
 c23: 737 pi_p_a5_a0 + 737 pi_p_a5_a6 + 737 pi_d_a5_a0_proc_1
      + 737 pi_d_a5_a1_proc_1 + 737 pi_d_a5_a2_proc_1 + 737 pi_d_a5_a3_proc_1
      + 737 pi_d_a5_a4_proc_1 + 737 pi_d_a5_a6_proc_1 + 737 pi_d_a5_a7_proc_1
      + 737 pi_d_a5_a8_proc_1 + 737 pi_d_a5_a9_proc_1 + pi_y1_a5
      + pi_y2_a5_proc_1 >= 0
 c24: 763 pi_p_a5_a0 + 763 pi_p_a5_a6 + 763 pi_d_a5_a0_proc_2
      + 763 pi_d_a5_a1_proc_2 + 763 pi_d_a5_a2_proc_2 + 763 pi_d_a5_a3_proc_2
      + 763 pi_d_a5_a4_proc_2 + 763 pi_d_a5_a6_proc_2 + 763 pi_d_a5_a7_proc_2
      + 763 pi_d_a5_a9_proc_2 + pi_y1_a5 + pi_y2_a5_proc_2 >= 0
 c25: - pi_p_a5_a6 + pi_p_a6_a7 - pi_p_a8_a6 + pi_p_a6_a8 + pi_p_a6_a9
      - pi_d_a0_a6_proc_2 - pi_d_a0_a6_proc_1 - pi_d_a0_a6_proc_0
      + pi_d_a6_a0_proc_2 + pi_d_a6_a0_proc_1 + pi_d_a6_a0_proc_0
      - pi_d_a1_a6_proc_2 - pi_d_a1_a6_proc_1 - pi_d_a1_a6_proc_0
      + pi_d_a6_a1_proc_2 + pi_d_a6_a1_proc_1 + pi_d_a6_a1_proc_0
      - pi_d_a2_a6_proc_2 - pi_d_a2_a6_proc_1 - pi_d_a2_a6_proc_0
      + pi_d_a6_a2_proc_2 + pi_d_a6_a2_proc_1 + pi_d_a6_a2_proc_0
      - pi_d_a3_a6_proc_2 - pi_d_a3_a6_proc_1 + pi_d_a6_a3_proc_2
      + pi_d_a6_a3_proc_1 - pi_d_a4_a6_proc_2 - pi_d_a4_a6_proc_1
      - pi_d_a4_a6_proc_0 + pi_d_a6_a4_proc_2 + pi_d_a6_a4_proc_1
      + pi_d_a6_a4_proc_0 - pi_d_a5_a6_proc_2 - pi_d_a5_a6_proc_1
      - pi_d_a5_a6_proc_0 + pi_d_a6_a5_proc_2 + pi_d_a6_a5_proc_1
      + pi_d_a6_a5_proc_0 + pi_d_a6_a7_proc_2 + pi_d_a6_a7_proc_1
      + pi_d_a6_a7_proc_0 - pi_d_a7_a6_proc_2 - pi_d_a7_a6_proc_1
      - pi_d_a7_a6_proc_0 + pi_d_a6_a8_proc_1 + pi_d_a6_a8_proc_0
      - pi_d_a8_a6_proc_1 - pi_d_a8_a6_proc_0 + pi_d_a6_a9_proc_2
      + pi_d_a6_a9_proc_1 + pi_d_a6_a9_proc_0 - pi_d_a9_a6_proc_2
      - pi_d_a9_a6_proc_1 - pi_d_a9_a6_proc_0 >= 0
 c26: 527 pi_p_a6_a7 + 527 pi_p_a6_a8 + 527 pi_p_a6_a9 + 527 pi_d_a6_a0_proc_0
      + 527 pi_d_a6_a1_proc_0 + 527 pi_d_a6_a2_proc_0 + 527 pi_d_a6_a4_proc_0
      + 527 pi_d_a6_a5_proc_0 + 527 pi_d_a6_a7_proc_0 + 527 pi_d_a6_a8_proc_0
      + 527 pi_d_a6_a9_proc_0 + pi_y1_a6 + pi_y2_a6_proc_0 >= 0
 c27: 955 pi_p_a6_a7 + 955 pi_p_a6_a8 + 955 pi_p_a6_a9 + 955 pi_d_a6_a0_proc_1
      + 955 pi_d_a6_a1_proc_1 + 955 pi_d_a6_a2_proc_1 + 955 pi_d_a6_a3_proc_1
      + 955 pi_d_a6_a4_proc_1 + 955 pi_d_a6_a5_proc_1 + 955 pi_d_a6_a7_proc_1
      + 955 pi_d_a6_a8_proc_1 + 955 pi_d_a6_a9_proc_1 + pi_y1_a6
      + pi_y2_a6_proc_1 >= 0
 c28: 907 pi_p_a6_a7 + 907 pi_p_a6_a8 + 907 pi_p_a6_a9 + 907 pi_d_a6_a0_proc_2
      + 907 pi_d_a6_a1_proc_2 + 907 pi_d_a6_a2_proc_2 + 907 pi_d_a6_a3_proc_2
      + 907 pi_d_a6_a4_proc_2 + 907 pi_d_a6_a5_proc_2 + 907 pi_d_a6_a7_proc_2
      + 907 pi_d_a6_a9_proc_2 + pi_y1_a6 + pi_y2_a6_proc_2 >= 0
 c29: - pi_p_a6_a7 - pi_p_a9_a7 - pi_p_a1_a7 + pi_p_a7_a5 + pi_p_a7_a3
      - pi_d_a0_a7_proc_2 - pi_d_a0_a7_proc_1 - pi_d_a0_a7_proc_0
      + pi_d_a7_a0_proc_2 + pi_d_a7_a0_proc_1 + pi_d_a7_a0_proc_0
      - pi_d_a1_a7_proc_2 - pi_d_a1_a7_proc_1 - pi_d_a1_a7_proc_0
      + pi_d_a7_a1_proc_2 + pi_d_a7_a1_proc_1 + pi_d_a7_a1_proc_0
      - pi_d_a2_a7_proc_2 - pi_d_a2_a7_proc_1 - pi_d_a2_a7_proc_0
      + pi_d_a7_a2_proc_2 + pi_d_a7_a2_proc_1 + pi_d_a7_a2_proc_0
      - pi_d_a3_a7_proc_2 - pi_d_a3_a7_proc_1 + pi_d_a7_a3_proc_2
      + pi_d_a7_a3_proc_1 - pi_d_a4_a7_proc_2 - pi_d_a4_a7_proc_1
      - pi_d_a4_a7_proc_0 + pi_d_a7_a4_proc_2 + pi_d_a7_a4_proc_1
      + pi_d_a7_a4_proc_0 - pi_d_a5_a7_proc_2 - pi_d_a5_a7_proc_1
      - pi_d_a5_a7_proc_0 + pi_d_a7_a5_proc_2 + pi_d_a7_a5_proc_1
      + pi_d_a7_a5_proc_0 - pi_d_a6_a7_proc_2 - pi_d_a6_a7_proc_1
      - pi_d_a6_a7_proc_0 + pi_d_a7_a6_proc_2 + pi_d_a7_a6_proc_1
      + pi_d_a7_a6_proc_0 + pi_d_a7_a8_proc_1 + pi_d_a7_a8_proc_0
      - pi_d_a8_a7_proc_1 - pi_d_a8_a7_proc_0 + pi_d_a7_a9_proc_2
      + pi_d_a7_a9_proc_1 + pi_d_a7_a9_proc_0 - pi_d_a9_a7_proc_2
      - pi_d_a9_a7_proc_1 - pi_d_a9_a7_proc_0 >= 0
 c30: 702 pi_p_a7_a5 + 702 pi_p_a7_a3 + 702 pi_d_a7_a0_proc_0
      + 702 pi_d_a7_a1_proc_0 + 702 pi_d_a7_a2_proc_0 + 702 pi_d_a7_a4_proc_0
      + 702 pi_d_a7_a5_proc_0 + 702 pi_d_a7_a6_proc_0 + 702 pi_d_a7_a8_proc_0
      + 702 pi_d_a7_a9_proc_0 + pi_y1_a7 + pi_y2_a7_proc_0 >= 0
 c31: 848 pi_p_a7_a5 + 848 pi_p_a7_a3 + 848 pi_d_a7_a0_proc_1
      + 848 pi_d_a7_a1_proc_1 + 848 pi_d_a7_a2_proc_1 + 848 pi_d_a7_a3_proc_1
      + 848 pi_d_a7_a4_proc_1 + 848 pi_d_a7_a5_proc_1 + 848 pi_d_a7_a6_proc_1
      + 848 pi_d_a7_a8_proc_1 + 848 pi_d_a7_a9_proc_1 + pi_y1_a7
      + pi_y2_a7_proc_1 >= 0
 c32: 740 pi_p_a7_a5 + 740 pi_p_a7_a3 + 740 pi_d_a7_a0_proc_2
      + 740 pi_d_a7_a1_proc_2 + 740 pi_d_a7_a2_proc_2 + 740 pi_d_a7_a3_proc_2
      + 740 pi_d_a7_a4_proc_2 + 740 pi_d_a7_a5_proc_2 + 740 pi_d_a7_a6_proc_2
      + 740 pi_d_a7_a9_proc_2 + pi_y1_a7 + pi_y2_a7_proc_2 >= 0
 c33: pi_p_a8_a6 - pi_p_a6_a8 - pi_d_a0_a8_proc_1 - pi_d_a0_a8_proc_0
      + pi_d_a8_a0_proc_1 + pi_d_a8_a0_proc_0 - pi_d_a1_a8_proc_1
      - pi_d_a1_a8_proc_0 + pi_d_a8_a1_proc_1 + pi_d_a8_a1_proc_0
      - pi_d_a2_a8_proc_1 - pi_d_a2_a8_proc_0 + pi_d_a8_a2_proc_1
      + pi_d_a8_a2_proc_0 - pi_d_a3_a8_proc_1 + pi_d_a8_a3_proc_1
      - pi_d_a4_a8_proc_1 - pi_d_a4_a8_proc_0 + pi_d_a8_a4_proc_1
      + pi_d_a8_a4_proc_0 - pi_d_a5_a8_proc_1 - pi_d_a5_a8_proc_0
      + pi_d_a8_a5_proc_1 + pi_d_a8_a5_proc_0 - pi_d_a6_a8_proc_1
      - pi_d_a6_a8_proc_0 + pi_d_a8_a6_proc_1 + pi_d_a8_a6_proc_0
      - pi_d_a7_a8_proc_1 - pi_d_a7_a8_proc_0 + pi_d_a8_a7_proc_1
      + pi_d_a8_a7_proc_0 + pi_d_a8_a9_proc_1 + pi_d_a8_a9_proc_0
      - pi_d_a9_a8_proc_1 - pi_d_a9_a8_proc_0 >= 0
 c34: 734 pi_p_a8_a6 + 734 pi_d_a8_a0_proc_0 + 734 pi_d_a8_a1_proc_0
      + 734 pi_d_a8_a2_proc_0 + 734 pi_d_a8_a4_proc_0 + 734 pi_d_a8_a5_proc_0
      + 734 pi_d_a8_a6_proc_0 + 734 pi_d_a8_a7_proc_0 + 734 pi_d_a8_a9_proc_0
      + pi_y1_a8 + pi_y2_a8_proc_0 >= 0
 c35: 789 pi_p_a8_a6 + 789 pi_d_a8_a0_proc_1 + 789 pi_d_a8_a1_proc_1
      + 789 pi_d_a8_a2_proc_1 + 789 pi_d_a8_a3_proc_1 + 789 pi_d_a8_a4_proc_1
      + 789 pi_d_a8_a5_proc_1 + 789 pi_d_a8_a6_proc_1 + 789 pi_d_a8_a7_proc_1
      + 789 pi_d_a8_a9_proc_1 + pi_y1_a8 + pi_y2_a8_proc_1 >= 0
 c36: pi_p_a9_a7 - pi_p_a4_a9 - pi_p_a6_a9 + pi_p_a9_a5 - pi_d_a0_a9_proc_2
      - pi_d_a0_a9_proc_1 - pi_d_a0_a9_proc_0 + pi_d_a9_a0_proc_2
      + pi_d_a9_a0_proc_1 + pi_d_a9_a0_proc_0 - pi_d_a1_a9_proc_2
      - pi_d_a1_a9_proc_1 - pi_d_a1_a9_proc_0 + pi_d_a9_a1_proc_2
      + pi_d_a9_a1_proc_1 + pi_d_a9_a1_proc_0 - pi_d_a2_a9_proc_2
      - pi_d_a2_a9_proc_1 - pi_d_a2_a9_proc_0 + pi_d_a9_a2_proc_2
      + pi_d_a9_a2_proc_1 + pi_d_a9_a2_proc_0 - pi_d_a3_a9_proc_2
      - pi_d_a3_a9_proc_1 + pi_d_a9_a3_proc_2 + pi_d_a9_a3_proc_1
      - pi_d_a4_a9_proc_2 - pi_d_a4_a9_proc_1 - pi_d_a4_a9_proc_0
      + pi_d_a9_a4_proc_2 + pi_d_a9_a4_proc_1 + pi_d_a9_a4_proc_0
      - pi_d_a5_a9_proc_2 - pi_d_a5_a9_proc_1 - pi_d_a5_a9_proc_0
      + pi_d_a9_a5_proc_2 + pi_d_a9_a5_proc_1 + pi_d_a9_a5_proc_0
      - pi_d_a6_a9_proc_2 - pi_d_a6_a9_proc_1 - pi_d_a6_a9_proc_0
      + pi_d_a9_a6_proc_2 + pi_d_a9_a6_proc_1 + pi_d_a9_a6_proc_0
      - pi_d_a7_a9_proc_2 - pi_d_a7_a9_proc_1 - pi_d_a7_a9_proc_0
      + pi_d_a9_a7_proc_2 + pi_d_a9_a7_proc_1 + pi_d_a9_a7_proc_0
      - pi_d_a8_a9_proc_1 - pi_d_a8_a9_proc_0 + pi_d_a9_a8_proc_1
      + pi_d_a9_a8_proc_0 >= 0
 c37: 1192 pi_p_a9_a7 + 1192 pi_p_a9_a5 + 1192 pi_d_a9_a0_proc_0
      + 1192 pi_d_a9_a1_proc_0 + 1192 pi_d_a9_a2_proc_0 + 1192 pi_d_a9_a4_proc_0
      + 1192 pi_d_a9_a5_proc_0 + 1192 pi_d_a9_a6_proc_0 + 1192 pi_d_a9_a7_proc_0
      + 1192 pi_d_a9_a8_proc_0 + pi_y1_a9 + pi_y2_a9_proc_0 >= 0
 c38: 420 pi_p_a9_a7 + 420 pi_p_a9_a5 + 420 pi_d_a9_a0_proc_1
      + 420 pi_d_a9_a1_proc_1 + 420 pi_d_a9_a2_proc_1 + 420 pi_d_a9_a3_proc_1
      + 420 pi_d_a9_a4_proc_1 + 420 pi_d_a9_a5_proc_1 + 420 pi_d_a9_a6_proc_1
      + 420 pi_d_a9_a7_proc_1 + 420 pi_d_a9_a8_proc_1 + pi_y1_a9
      + pi_y2_a9_proc_1 >= 0
 c39: 575 pi_p_a9_a7 + 575 pi_p_a9_a5 + 575 pi_d_a9_a0_proc_2
      + 575 pi_d_a9_a1_proc_2 + 575 pi_d_a9_a2_proc_2 + 575 pi_d_a9_a3_proc_2
      + 575 pi_d_a9_a4_proc_2 + 575 pi_d_a9_a5_proc_2 + 575 pi_d_a9_a6_proc_2
      + 575 pi_d_a9_a7_proc_2 + pi_y1_a9 + pi_y2_a9_proc_2 >= 0

Bounds
       pi_y1_a0 Free
       pi_y1_a1 Free
       pi_y1_a2 Free
       pi_y1_a3 Free
       pi_y1_a4 Free
       pi_y1_a5 Free
       pi_y1_a6 Free
       pi_y1_a7 Free
       pi_y1_a8 Free
       pi_y1_a9 Free
End
