benchmark/results/graph__10-1000-0.10-03_11/graph__10-1000-0.10-03_11_Quinton_Benders_sub.txt
solution for: Quinton Benders_dual_sub
objective: 0.000310463
status: OPTIMAL_SOLUTION(2)
pi_p_a7_a5=0.000
pi_d_a5_a6_proc_1=0.000
pi_d_a6_a8_proc_1=0.000
pi_d_a8_a7_proc_1=0.000
pi_y1_a5=-0.229
pi_y1_a6=-0.296
pi_y1_a7=-0.230
pi_y1_a8=-0.245
pi_y2_a5_proc_0=0.229
pi_y2_a5_proc_2=0.229
pi_y2_a6_proc_0=0.296
pi_y2_a6_proc_2=0.296
pi_y2_a7_proc_0=0.012
pi_y2_a8_proc_0=0.245
